N = 7;
H = 5;
T = 2;

avail = array3d(1..N, 1..H, 1..T, [5, 2, 8, 10, 0, 1, 0, 0, 6, 4, 9, 9, 1, 6, 9, 8, 2, 9, 3, 9, 5, 5, 9, 10, 0, 3, 5, 10, 0, 10, 0, 2, 8, 7, 1, 4, 4, 2, 6, 7, 4, 6, 4, 8, 6, 6, 7, 0, 4, 2, 1, 0, 6, 4, 10, 9, 7, 1, 2, 8, 8, 6, 9, 4, 6, 4, 10, 4, 1, 2]);

r = array2d(1..H, 1..T, [2, 0, 1, 1, 2, 2, 3, 3, 1, 3]);
